g3 0 1 0	# problem d5n8R2R6d005d05
 8 7 1 0 2	# vars, constraints, objectives, ranges, eqns
 3 1	# nonlinear constraints, objectives
 0 0	# network constraints: nonlinear, linear
 8 8 8	# nonlinear vars in constraints, objectives, both
 0 0 0 1	# linear network variables; functions; arith, flags
 0 0 0 0 0	# discrete variables: binary, integer, nonlinear (b,c,o)
 48 8	# nonzeros in Jacobian, gradients
 0 0	# max name lengths: constraints, variables
 0 0 0 0 0	# common exprs: b,c,o,c1,o1
b
0 0.4 2.19
0 0.07 2.87
0 0.14 2.74
0 0.93 2.04
0 0.3 2.33
0 0.62 2.63
0 0.61 2.21
0 0.47 2.71
r
2 74.685
2 440.95
2 1339.72
4 29.14
4 5.031
2 48.313
2 16.824
C0
o54
7
o2
o2
o2
n0.98
v0
v1
v3
o2
o2
o2
n3.72
v0
v1
v7
o2
o2
o2
n3.32
v0
v5
v7
o16
o2
o2
o2
n2.9
v1
v3
v5
o2
o2
o2
n7.08
v2
v3
v3
o16
o2
o2
o2
n7.9
v3
v4
v6
o2
o2
o2
n1.28
v5
v6
v7
C1
o54
24
o2
o2
o2
n9.18
v0
v1
v3
o2
o2
o2
n3.17
v0
v1
v7
o2
o2
o2
n1.14
v0
v5
v7
o2
o2
o2
n7.52
v1
v3
v5
o2
o2
o2
n0.75
v2
v3
v3
o16
o2
o2
o2
n5.72
v3
v4
v6
o2
o2
o2
n1.17
v5
v6
v7
o2
o2
o2
o2
n8.22
v0
v0
v0
v0
o2
o2
o2
o2
n4.15
v0
v0
v1
v3
o2
o2
o2
o2
n9.66
v0
v0
v4
v6
o2
o2
o2
o2
n2.3
v0
v1
v1
v3
o2
o2
o2
o2
n2.12
v0
v1
v1
v7
o2
o2
o2
o2
n1.3
v0
v1
v6
v7
o2
o2
o2
o2
n7.27
v0
v2
v3
v5
o2
o2
o2
o2
n0.98
v0
v3
v7
v7
o2
o2
o2
o2
n8.69
v1
v2
v3
v7
o2
o2
o2
o2
n9.42
v1
v2
v4
v4
o2
o2
o2
o2
n1.2
v1
v2
v5
v6
o2
o2
o2
o2
n9.09
v2
v3
v5
v7
o16
o2
o2
o2
o2
n8.6
v2
v4
v6
v6
o2
o2
o2
o2
n9.08
v3
v4
v6
v7
o2
o2
o2
o2
n6.46
v3
v5
v5
v5
o2
o2
o2
o2
n2.55
v4
v5
v5
v6
o2
o2
o2
o2
n1.44
v4
v6
v6
v7
C2
o54
64
o2
o2
o2
n5.69
v0
v1
v3
o2
o2
o2
n4.9
v0
v1
v7
o2
o2
o2
n1.11
v0
v5
v7
o2
o2
o2
n3.3
v1
v3
v5
o2
o2
o2
n3.66
v2
v3
v3
o2
o2
o2
n6.08
v3
v4
v6
o2
o2
o2
n8.14
v5
v6
v7
o2
o2
o2
o2
n0.87
v0
v0
v0
v0
o2
o2
o2
o2
n3.49
v0
v0
v1
v3
o2
o2
o2
o2
n9.59
v0
v0
v4
v6
o2
o2
o2
o2
n0.41
v0
v1
v1
v3
o2
o2
o2
o2
n9.54
v0
v1
v1
v7
o2
o2
o2
o2
n3.84
v0
v1
v6
v7
o2
o2
o2
o2
n8.29
v0
v2
v3
v5
o2
o2
o2
o2
n9.39
v0
v3
v7
v7
o2
o2
o2
o2
n3.87
v1
v2
v3
v7
o2
o2
o2
o2
n7.72
v1
v2
v4
v4
o2
o2
o2
o2
n6.92
v1
v2
v5
v6
o16
o2
o2
o2
o2
n6.02
v2
v3
v5
v7
o2
o2
o2
o2
n6.19
v2
v4
v6
v6
o2
o2
o2
o2
n0.54
v3
v4
v6
v7
o2
o2
o2
o2
n4.19
v3
v5
v5
v5
o2
o2
o2
o2
n9.36
v4
v5
v5
v6
o2
o2
o2
o2
n4.29
v4
v6
v6
v7
o2
o2
o2
o2
o2
n9.34
v0
v0
v0
v0
v5
o2
o2
o2
o2
o2
n6.08
v0
v0
v1
v4
v7
o2
o2
o2
o2
o2
n6.44
v0
v0
v4
v4
v4
o2
o2
o2
o2
o2
n0.36
v0
v0
v6
v6
v6
o2
o2
o2
o2
o2
n3.32
v0
v1
v1
v2
v2
o2
o2
o2
o2
o2
n0.43
v0
v1
v1
v3
v3
o2
o2
o2
o2
o2
n3.43
v0
v1
v1
v3
v4
o2
o2
o2
o2
o2
n1.2
v0
v1
v2
v5
v7
o2
o2
o2
o2
o2
n5.57
v0
v1
v2
v7
v7
o2
o2
o2
o2
o2
n2.72
v0
v1
v3
v5
v6
o16
o2
o2
o2
o2
o2
n7.99
v0
v1
v5
v5
v7
o2
o2
o2
o2
o2
n9.64
v0
v2
v2
v3
v4
o2
o2
o2
o2
o2
n6.12
v0
v2
v2
v3
v7
o2
o2
o2
o2
o2
n3.2
v0
v2
v3
v3
v3
o2
o2
o2
o2
o2
n2.94
v0
v2
v3
v4
v7
o2
o2
o2
o2
o2
n7.28
v0
v2
v3
v7
v7
o2
o2
o2
o2
o2
n6.15
v0
v2
v4
v5
v7
o2
o2
o2
o2
o2
n5.14
v0
v3
v3
v5
v7
o2
o2
o2
o2
o2
n1.09
v0
v5
v6
v6
v6
o16
o2
o2
o2
o2
o2
n8.36
v1
v1
v1
v3
v4
o2
o2
o2
o2
o2
n3.54
v1
v1
v1
v3
v6
o2
o2
o2
o2
o2
n4.48
v1
v1
v2
v2
v4
o16
o2
o2
o2
o2
o2
n1.44
v1
v1
v2
v2
v5
o2
o2
o2
o2
o2
n5.06
v1
v1
v5
v5
v6
o2
o2
o2
o2
o2
n9.6
v1
v2
v3
v5
v5
o16
o2
o2
o2
o2
o2
n0.58
v1
v3
v5
v5
v7
o2
o2
o2
o2
o2
n6.49
v1
v3
v5
v6
v7
o2
o2
o2
o2
o2
n3.84
v1
v4
v4
v5
v5
o2
o2
o2
o2
o2
n7.08
v1
v5
v5
v5
v6
o16
o2
o2
o2
o2
o2
n8.33
v2
v2
v3
v3
v7
o2
o2
o2
o2
o2
n0.92
v2
v2
v3
v4
v4
o2
o2
o2
o2
o2
n3.21
v2
v2
v3
v4
v5
o2
o2
o2
o2
o2
n9.44
v2
v3
v5
v5
v7
o2
o2
o2
o2
o2
n1.45
v2
v6
v6
v6
v6
o2
o2
o2
o2
o2
n1.49
v3
v3
v3
v4
v5
o2
o2
o2
o2
o2
n2.64
v3
v4
v5
v5
v6
o2
o2
o2
o2
o2
n1.36
v3
v5
v5
v6
v7
o2
o2
o2
o2
o2
n7.08
v3
v7
v7
v7
v7
o2
o2
o2
o2
o2
n8.11
v4
v4
v4
v4
v4
o16
o2
o2
o2
o2
o2
n2.75
v4
v4
v5
v5
v6
C3
n0
C4
n0
C5
n0
C6
n0
O0 0
o54
64
o2
o2
o2
n9.18
v0
v1
v3
o2
o2
o2
n4.45
v0
v1
v7
o2
o2
o2
n8.98
v0
v5
v7
o2
o2
o2
n0.1
v1
v3
v5
o2
o2
o2
n5.59
v2
v3
v3
o2
o2
o2
n5.44
v3
v4
v6
o2
o2
o2
n0.28
v5
v6
v7
o2
o2
o2
o2
n6.77
v0
v0
v0
v0
o2
o2
o2
o2
n5.01
v0
v0
v1
v3
o2
o2
o2
o2
n0.72
v0
v0
v4
v6
o2
o2
o2
o2
n0.17
v0
v1
v1
v3
o2
o2
o2
o2
n6.25
v0
v1
v1
v7
o2
o2
o2
o2
n4.61
v0
v1
v6
v7
o2
o2
o2
o2
n7.13
v0
v2
v3
v5
o2
o2
o2
o2
n0.68
v0
v3
v7
v7
o2
o2
o2
o2
n0.34
v1
v2
v3
v7
o2
o2
o2
o2
n2.3
v1
v2
v4
v4
o2
o2
o2
o2
n0.66
v1
v2
v5
v6
o2
o2
o2
o2
n8.66
v2
v3
v5
v7
o2
o2
o2
o2
n6.74
v2
v4
v6
v6
o2
o2
o2
o2
n1.47
v3
v4
v6
v7
o2
o2
o2
o2
n9
v3
v5
v5
v5
o2
o2
o2
o2
n8.63
v4
v5
v5
v6
o2
o2
o2
o2
n4.68
v4
v6
v6
v7
o2
o2
o2
o2
o2
n1.94
v0
v0
v0
v0
v5
o2
o2
o2
o2
o2
n0.3
v0
v0
v1
v4
v7
o2
o2
o2
o2
o2
n1.9
v0
v0
v4
v4
v4
o16
o2
o2
o2
o2
o2
n6.88
v0
v0
v6
v6
v6
o2
o2
o2
o2
o2
n7.19
v0
v1
v1
v2
v2
o2
o2
o2
o2
o2
n8.24
v0
v1
v1
v3
v3
o2
o2
o2
o2
o2
n1.88
v0
v1
v1
v3
v4
o2
o2
o2
o2
o2
n7.66
v0
v1
v2
v5
v7
o2
o2
o2
o2
o2
n7.87
v0
v1
v2
v7
v7
o2
o2
o2
o2
o2
n3.28
v0
v1
v3
v5
v6
o16
o2
o2
o2
o2
o2
n5.73
v0
v1
v5
v5
v7
o2
o2
o2
o2
o2
n7.41
v0
v2
v2
v3
v4
o16
o2
o2
o2
o2
o2
n1.47
v0
v2
v2
v3
v7
o2
o2
o2
o2
o2
n0.24
v0
v2
v3
v3
v3
o2
o2
o2
o2
o2
n2.18
v0
v2
v3
v4
v7
o2
o2
o2
o2
o2
n3.19
v0
v2
v3
v7
v7
o2
o2
o2
o2
o2
n8.35
v0
v2
v4
v5
v7
o2
o2
o2
o2
o2
n2.08
v0
v3
v3
v5
v7
o16
o2
o2
o2
o2
o2
n5.63
v0
v5
v6
v6
v6
o2
o2
o2
o2
o2
n5.71
v1
v1
v1
v3
v4
o2
o2
o2
o2
o2
n3.93
v1
v1
v1
v3
v6
o2
o2
o2
o2
o2
n9.9
v1
v1
v2
v2
v4
o2
o2
o2
o2
o2
n6.54
v1
v1
v2
v2
v5
o2
o2
o2
o2
o2
n2.45
v1
v1
v5
v5
v6
o2
o2
o2
o2
o2
n7.21
v1
v2
v3
v5
v5
o2
o2
o2
o2
o2
n9.28
v1
v3
v5
v5
v7
o2
o2
o2
o2
o2
n7.96
v1
v3
v5
v6
v7
o2
o2
o2
o2
o2
n7.09
v1
v4
v4
v5
v5
o2
o2
o2
o2
o2
n5.42
v1
v5
v5
v5
v6
o2
o2
o2
o2
o2
n2.8
v2
v2
v3
v3
v7
o16
o2
o2
o2
o2
o2
n8.47
v2
v2
v3
v4
v4
o2
o2
o2
o2
o2
n5.17
v2
v2
v3
v4
v5
o16
o2
o2
o2
o2
o2
n5.09
v2
v3
v5
v5
v7
o2
o2
o2
o2
o2
n8.81
v2
v6
v6
v6
v6
o2
o2
o2
o2
o2
n1.2
v3
v3
v3
v4
v5
o2
o2
o2
o2
o2
n6
v3
v4
v5
v5
v6
o2
o2
o2
o2
o2
n9.21
v3
v5
v5
v6
v7
o2
o2
o2
o2
o2
n6.51
v3
v7
v7
v7
v7
o2
o2
o2
o2
o2
n9.23
v4
v4
v4
v4
v4
o2
o2
o2
o2
o2
n0.85
v4
v4
v5
v5
v6
k7
6
12
19
25
31
37
43
J0 8
0 4.14
1 -6.03
2 9.6
3 7.37
4 4.61
5 4.86
6 7.38
7 5.54
J1 8
0 1.17
1 0.91
2 2.53
3 6.4
4 6.09
5 9.19
6 3.77
7 5.3
J2 8
0 3.39
1 3.8
2 1.19
3 4.62
4 8.58
5 4.24
6 9.93
7 3.59
J3 4
1 1.84
2 1.91
5 7.2
6 8.5
J4 4
0 2.1
2 -7.58
3 2.46
4 7.28
J5 8
0 8.73
1 2.23
2 1.7
3 9.84
4 0.97
5 6.1
6 -6.69
7 9.38
J6 8
0 -7.6
1 8.62
2 -7.05
3 0.1
4 6.55
5 1.93
6 8.45
7 0.21
G0 8
0 5.76
1 2.15
2 4.73
3 7.12
4 0.86
5 3.74
6 2.44
7 0.89
